Running HiGHS 1.7.2 (git hash: 5ce7a2753): Copyright (c) 2024 HiGHS under MIT licence terms
Coefficient ranges:
  Matrix [1e+00, 1e+00]
  Cost   [1e+00, 1e+00]
  Bound  [1e+00, 1e+00]
  RHS    [1e+00, 1e+00]
Presolving model
94566 rows, 2397 cols, 191382 nonzeros  0s
48506 rows, 2397 cols, 99262 nonzeros  0s
6228 rows, 2395 cols, 53517 nonzeros  0s
6126 rows, 2395 cols, 53416 nonzeros  1s
Objective function is integral with scale 1

Solving MIP model with:
   6126 rows
   2395 cols (2395 binary, 0 integer, 0 implied int., 0 continuous)
   53416 nonzeros

        Nodes      |    B&B Tree     |            Objective Bounds              |  Dynamic Constraints |       Work      
     Proc. InQueue |  Leaves   Expl. | BestBound       BestSol              Gap |   Cuts   InLp Confl. | LpIters     Time

         0       0         0   0.00%   2               inf                  inf        0      0      0         0     1.1s
         0       0         0   0.00%   9.518496167     inf                  inf        0      0     10     16021    11.2s
         0       0         0   0.00%   9.554786399     inf                  inf        2      2     26     17449    18.0s
 C       0       0         0   0.00%   9.578721219     37                74.11%        5      5    167     18433    20.0s
         0       0         0   0.00%   9.604372526     37                74.04%       14     11    167     20328    25.1s
         0       0         0   0.00%   9.631460663     37                73.97%       23     18    167     22077    30.2s
 L       0       0         0   0.00%   9.649698431     20                51.75%       29     24    167     23476    57.7s

4.4% inactive integer columns, restarting
Model after restart has 6020 rows, 2289 cols (2289 bin., 0 int., 0 impl., 0 cont.), and 51070 nonzeros

         0       0         0   0.00%   9.649698431     20                51.75%       24      0      0     47667    58.3s
         0       0         0   0.00%   9.649698431     20                51.75%       24     24     14     49818    60.2s

57.8% inactive integer columns, restarting
Model after restart has 2460 rows, 967 cols (967 bin., 0 int., 0 impl., 0 cont.), and 21592 nonzeros

         0       0         0   0.00%   10.1971964      20                49.01%        4      0      0     52017    62.0s
         0       0         0   0.00%   10.1971964      20                49.01%        4      4     12     56334    63.4s
         0       0         0   0.00%   10.61062417     20                46.95%      107     21     12     60566    68.5s
        25       0         1   0.00%   10.83214118     20                45.84%      123     34     22    195521   107.0s
 B      60       0        17   0.00%   10.83214118     18                39.82%      128     34    482    198807   107.5s
       269      14       121  50.00%   10.93872492     18                39.23%      229     24    998    231134   112.5s
       417      21       188  50.03%   10.93872492     18                39.23%      414     35   1238    292140   122.9s
       483      27       219  50.27%   10.93872492     18                39.23%      426     35   1522    320421   128.0s
       548      31       253  50.32%   11.27133234     18                37.38%      532     34   1642    346182   133.1s
       555      29       256  50.71%   11.27133234     18                37.38%      900     68   1652    371365   140.4s
       610      32       281  51.20%   11.27133234     18                37.38%      911     68   1777    397214   145.5s

        Nodes      |    B&B Tree     |            Objective Bounds              |  Dynamic Constraints |       Work      
     Proc. InQueue |  Leaves   Expl. | BestBound       BestSol              Gap |   Cuts   InLp Confl. | LpIters     Time

       655      40       302  51.25%   11.69951415     18                35.00%      912     75   1850    416600   150.6s
       706      36       329  51.44%   11.69951415     18                35.00%     1028     66   1990    469875   164.9s
       751      34       352  52.05%   11.69951415     18                35.00%      880     69   2083    492117   170.0s
       809      35       381  52.05%   11.69951415     18                35.00%      880     69   2155    519186   175.1s
       838      38       393  52.26%   11.69951415     18                35.00%      580     94   2198    619636   202.8s
       874      38       411  52.45%   11.69951415     18                35.00%      580     94   2258    641577   208.1s
       893      38       421  52.79%   11.69951415     18                35.00%      592     94   2332    666431   213.2s
       933      41       441  52.84%   12.14359982     18                32.54%      606     94   2481    689282   218.3s
       956      38       452  52.89%   12.14359982     18                32.54%      641    111   2537    710818   224.3s
       992      39       470  53.42%   12.14359982     18                32.54%      662    111   2633    730026   229.4s
      1021      40       484  53.42%   12.14359982     18                32.54%      662    111   2672    746566   234.8s
      1047      40       497  53.42%   12.14359982     18                32.54%      663    111   2705    762376   239.8s
      1056      41       501  53.45%   12.3329624      18                31.48%      662    114   2716    793141   249.7s
      1088      41       517  53.51%   12.3329624      18                31.48%      663    114   2779    809535   254.8s
      1115      41       531  53.52%   12.3329624      18                31.48%      669    114   2810    826540   260.1s
      1137      41       542  53.52%   12.3329624      18                31.48%      670    114   2832    843411   265.2s
      1157      42       551  53.53%   12.34655908     18                31.41%      505    119   2858    892248   280.2s
      1194      42       570  53.57%   12.34655908     18                31.41%      509    119   2922    911679   285.4s
      1226      42       586  53.57%   12.34655908     18                31.41%      512    119   2954    934730   290.5s
      1241      43       593  53.58%   12.34655908     18                31.41%      513    119   2971    973851   299.0s

Solving report
  Status            Time limit reached
  Primal bound      18
  Dual bound        13
  Gap               27.78% (tolerance: 0.01%)
  Solution status   feasible
                    18 (objective)
                    0 (bound viol.)
                    4.64850380411e-13 (int. viol.)
                    0 (row viol.)
  Timing            300.00 (total)
                    1.69 (presolve)
                    0.00 (postsolve)
  Nodes             1248
  LP iterations     977845 (total)
                    365748 (strong br.)
                    32410 (separation)
                    75168 (heuristics)
ARGS = ["1", "300", "selected_instances/07.txt"]
instance = (50, 980, [[10, 21, 50, 34, 26, 37, 35, 9, 3, 20, 27, 2, 40, 46, 48, 17, 32, 24, 28, 38, 11, 4, 42, 30, 29, 44, 19, 8, 25, 7, 36, 45, 5, 49, 13, 6, 23, 14, 16], [26, 12, 37, 18, 35, 9, 20, 27, 40, 46, 48, 17, 32, 1, 24, 28, 38, 11, 4, 22, 42, 30, 29, 31, 44, 19, 8, 25, 7, 36, 45, 39, 5, 49, 13, 6, 15, 41, 23, 14, 16, 47, 10, 21, 50, 34], [49, 33, 13, 6, 15, 41, 23, 47, 10, 1, 34, 26, 12, 37, 35, 9, 27, 40, 46, 48, 17, 24, 28, 38, 11, 4, 22, 42, 30, 29, 31, 44, 19, 25, 36, 45, 39, 43], [41, 23, 14, 10, 21, 50, 34, 26, 12, 18, 35, 9, 20, 2, 46, 32, 24, 1, 28, 38, 11, 42, 30, 29, 3, 44, 19, 8, 25, 7, 36, 45, 39, 5, 43, 49, 33, 13, 6], [47, 10, 21, 50, 34, 26, 12, 37, 18, 35, 9, 20, 40, 46, 48, 32, 24, 38, 11, 30, 2, 29, 31, 19, 8, 7, 36, 45, 1, 39, 43, 49, 33, 13, 6, 15, 4, 41, 23, 14], [31, 44, 19, 3, 36, 45, 39, 43, 49, 33, 15, 41, 14, 16, 10, 21, 50, 34, 26, 12, 37, 18, 35, 9, 20, 46, 2, 48, 17, 32, 1, 5, 38, 11, 22, 42, 4], [10, 21, 50, 34, 26, 12, 37, 18, 20, 40, 46, 48, 17, 32, 24, 28, 38, 2, 11, 22, 42, 30, 29, 31, 44, 1, 19, 5, 25, 4, 45, 39, 43, 49, 33, 13, 15, 41, 23], [29, 31, 44, 19, 25, 36, 45, 43, 49, 13, 41, 23, 14, 16, 47, 10, 21, 50, 34, 12, 2, 37, 9, 20, 27, 40, 1, 5, 48, 17, 32, 4, 24, 28, 38, 11, 22, 30], [26, 12, 18, 35, 2, 20, 46, 48, 1, 17, 5, 32, 24, 4, 28, 38, 3, 42, 29, 31, 44, 19, 6, 25, 36, 8, 45, 39, 43, 13, 15, 41, 23, 14, 16, 47, 10, 21, 50, 34], [32, 1, 5, 7, 24, 28, 4, 38, 11, 22, 42, 30, 3, 44, 36, 6, 8, 49, 33, 13, 15, 41, 23, 14, 16, 47, 21, 34, 26, 12, 18, 35, 20, 2, 27, 9, 40, 46, 48], [41, 23, 14, 16, 47, 21, 10, 50, 26, 12, 37, 18, 35, 20, 27, 2, 40, 46, 48, 32, 1, 24, 5, 7, 28, 38, 4, 22, 42, 30, 3, 29, 31, 44, 19, 25, 36, 6, 45, 39, 43, 49, 33, 13, 8, 15], [45, 39, 49, 2, 9, 15, 41, 23, 14, 16, 5, 7, 4, 11, 50, 34, 26, 3, 35, 20, 6, 40, 8, 46, 48, 17, 32, 24, 38, 10, 22, 30, 44, 19, 25, 36], [3, 29, 25, 36, 39, 43, 33, 8, 15, 41, 23, 14, 16, 47, 21, 50, 34, 10, 37, 35, 20, 27, 40, 2, 9, 17, 32, 1, 28, 5, 7, 4, 22, 11, 30], [48, 4, 32, 11, 24, 28, 12, 38, 22, 42, 30, 6, 13, 29, 31, 44, 19, 8, 25, 45, 39, 43, 49, 33, 15, 10, 41, 23, 16, 47, 21, 50, 34, 2, 9, 18, 20, 27, 40, 1, 5, 46], [29, 31, 44, 25, 36, 3, 12, 45, 39, 43, 49, 33, 6, 13, 23, 16, 47, 21, 34, 10, 14, 37, 18, 35, 20, 27, 40, 46, 48, 17, 2, 9, 32, 38, 5, 22, 42, 7, 11], [36, 11, 39, 43, 33, 12, 41, 23, 15, 6, 13, 47, 8, 34, 26, 37, 18, 35, 10, 27, 14, 40, 46, 17, 32, 24, 28, 2, 9, 38, 1, 29, 31, 44, 19], [37, 18, 35, 20, 27, 46, 2, 9, 28, 38, 22, 42, 1, 30, 7, 29, 44, 19, 25, 36, 3, 45, 39, 43, 12, 49, 16, 15, 6, 13, 41, 23, 8, 47, 21, 50, 34, 26], [24, 17, 28, 2, 9, 38, 22, 42, 30, 29, 5, 31, 44, 19, 7, 36, 4, 11, 45, 43, 49, 23, 16, 15, 6, 47, 21, 50, 34, 26, 20, 10, 14, 40, 48, 32], [6, 47, 8, 50, 34, 18, 14, 27, 40, 46, 48, 32, 17, 24, 28, 2, 9, 22, 42, 30, 1, 5, 29, 7, 31, 44, 25, 4, 11, 39, 43, 49, 33, 3, 12, 41, 23, 16], [17, 35, 2, 9, 27, 46, 1, 32, 5, 7, 4, 11, 38, 22, 42, 30, 12, 29, 31, 25, 15, 36, 6, 13, 8, 45, 39, 43, 49, 33, 41, 18, 10, 14, 21, 50, 34], [50, 34, 1, 5, 7, 26, 4, 11, 37, 35, 27, 40, 46, 48, 32, 15, 6, 13, 24, 8, 38, 22, 42, 30, 18, 29, 31, 44, 10, 25, 36, 14, 45, 39, 43, 49, 33, 17, 41, 23, 2, 20, 9, 47], [27, 40, 18, 32, 10, 14, 24, 38, 42, 30, 17, 2, 31, 44, 20, 25, 36, 21, 45, 39, 43, 49, 7, 19, 41, 11, 23, 47, 3, 12, 50, 34, 26, 15, 6, 13, 8, 37, 35], [4, 11, 26, 3, 12, 37, 35, 16, 27, 15, 13, 40, 8, 48, 32, 18, 38, 10, 42, 14, 30, 29, 31, 44, 22, 17, 45, 39, 43, 2, 49, 33, 9, 21, 41, 1, 5, 7, 19, 47], [18, 41, 10, 14, 47, 22, 50, 34, 26, 2, 9, 37, 35, 21, 27, 40, 1, 5, 46, 48, 7, 19, 32, 4, 11, 28, 3, 38, 12, 42, 16, 31, 8, 25, 36, 39, 43, 49, 33], [15, 47, 13, 8, 50, 34, 26, 37, 35, 27, 40, 14, 46, 48, 32, 22, 17, 38, 2, 20, 9, 42, 30, 21, 31, 1, 7, 19, 36, 4, 45, 11, 39, 43, 24, 49, 33, 3, 12], [2, 9, 45, 39, 49, 21, 23, 1, 41, 5, 7, 25, 4, 11, 47, 24, 50, 3, 12, 37, 16, 35, 6, 27, 40, 46, 48, 32, 18, 28, 10, 38, 42, 30, 22, 29, 31, 44, 17, 36], [22, 37, 17, 35, 2, 20, 21, 46, 48, 23, 1, 25, 19, 28, 11, 24, 42, 30, 3, 26, 29, 31, 44, 16, 36, 15, 13, 39, 8, 43, 49, 33, 41, 47, 10, 14, 50, 34], [18, 40, 10, 14, 32, 17, 38, 2, 27, 9, 30, 29, 31, 44, 1, 36, 7, 19, 45, 39, 43, 4, 11, 49, 33, 24, 3, 26, 16, 47, 13, 8, 50, 34], [15, 13, 8, 47, 50, 34, 18, 37, 35, 14, 46, 48, 28, 32, 17, 2, 27, 20, 9, 21, 42, 23, 1, 5, 7, 19, 31, 44, 4, 11, 36, 45, 39, 43, 49, 3, 26, 16, 41], [47, 18, 50, 10, 14, 37, 35, 22, 28, 40, 17, 46, 48, 2, 27, 20, 32, 21, 23, 1, 5, 38, 7, 25, 19, 42, 4, 11, 31, 44, 3, 36, 12, 26, 45, 39, 33, 13, 8], [15, 6, 8, 47, 18, 37, 35, 14, 40, 48, 22, 32, 28, 2, 27, 20, 9, 38, 21, 42, 23, 5, 25, 7, 19, 44, 29, 30, 11, 36, 24, 39, 43, 49, 3, 26, 41, 16], [10, 14, 22, 28, 50, 34, 2, 20, 9, 21, 35, 23, 1, 5, 7, 25, 40, 19, 31, 29, 30, 4, 46, 11, 48, 24, 12, 26, 38, 16, 42, 15, 6, 13, 8, 44, 36, 45, 18, 49, 33], [3, 47, 16, 15, 6, 13, 37, 35, 40, 48, 10, 14, 38, 28, 27, 20, 44, 36, 21, 23, 45, 39, 43, 49, 5, 7, 25, 19, 30, 4, 11, 41, 24, 32], [50, 21, 1, 5, 37, 7, 25, 19, 29, 35, 4, 24, 40, 32, 46, 3, 48, 12, 16, 15, 6, 13, 8, 42, 44, 18, 36, 10, 45, 43, 14, 49, 41, 22, 28, 17, 47, 2, 27, 20, 9], [49, 17, 2, 27, 20, 9, 41, 34, 21, 23, 1, 33, 5, 25, 31, 29, 30, 4, 11, 24, 32, 37, 3, 12, 26, 40, 16, 15, 46, 6, 13, 48, 38, 42, 10, 44, 36, 45, 22, 39], [16, 47, 15, 6, 13, 8, 50, 37, 18, 10, 40, 46, 22, 28, 17, 38, 27, 2, 20, 9, 42, 34, 21, 1, 33, 5, 25, 31, 29, 30, 45, 4, 39, 11, 43, 49, 24, 32, 3, 35, 12, 41, 26], [17, 2, 27, 34, 21, 23, 40, 1, 33, 5, 46, 36, 7, 25, 48, 31, 29, 30, 11, 24, 3, 35, 38, 26, 42, 16, 15, 6, 13, 44, 8, 45, 43, 41, 47, 22], [42, 18, 10, 14, 45, 39, 43, 49, 22, 28, 17, 41, 2, 20, 9, 37, 47, 21, 23, 50, 1, 33, 5, 36, 7, 25, 31, 30, 4, 11, 24, 32, 3, 35, 40, 12, 26, 48, 16, 15, 6, 8], [12, 26, 44, 16, 15, 6, 13, 45, 43, 49, 38, 41, 14, 50, 22, 28, 17, 2, 27, 20, 9, 40, 46, 48, 21, 23, 33, 5, 36, 7, 25, 19, 31, 29, 30, 4, 11, 24, 42, 3, 35], [22, 28, 2, 37, 44, 34, 21, 23, 43, 1, 33, 5, 49, 36, 7, 25, 19, 31, 30, 11, 41, 24, 32, 3, 35, 47, 12, 26, 16, 15, 13, 39, 8, 38, 18, 46, 48, 10, 14], [4, 11, 24, 50, 3, 35, 12, 26, 16, 6, 13, 39, 8, 46, 48, 38, 40, 10, 42, 14, 44, 22, 17, 43, 2, 27, 20, 49, 9, 37, 34, 21, 23, 33, 5, 36, 7, 19, 31, 29, 47], [38, 44, 18, 10, 45, 14, 49, 22, 17, 2, 27, 47, 20, 9, 37, 34, 50, 21, 23, 41, 1, 36, 7, 25, 19, 31, 29, 30, 4, 11, 24, 32, 3, 46, 35, 48, 26, 15, 6, 39], [44, 16, 15, 45, 6, 13, 39, 49, 8, 38, 40, 18, 47, 14, 50, 22, 28, 17, 27, 20, 9, 37, 46, 34, 48, 21, 23, 41, 33, 5, 36, 7, 25, 19, 31, 29, 4, 11, 24, 3], [15, 6, 43, 39, 8, 47, 42, 50, 40, 18, 10, 14, 46, 48, 22, 28, 17, 2, 27, 9, 37, 34, 21, 23, 41, 1, 33, 7, 19, 31, 29, 30, 4, 11, 32, 45, 49, 3, 35, 12, 26, 16], [12, 26, 15, 6, 43, 39, 8, 42, 38, 18, 48, 14, 22, 28, 17, 2, 20, 9, 37, 34, 21, 23, 1, 33, 5, 36, 7, 25, 44, 49, 29, 30, 4, 11, 32, 3, 35], [17, 2, 27, 20, 9, 37, 34, 21, 49, 41, 1, 5, 36, 25, 7, 19, 44, 29, 30, 4, 11, 24, 32, 3, 35, 12, 50, 26, 16, 15, 6, 43, 39, 42, 48, 40, 10, 14], [33, 50, 5, 36, 25, 19, 44, 31, 29, 30, 11, 24, 3, 26, 48, 16, 15, 13, 43, 8, 42, 38, 40, 18, 10, 14, 49, 22, 28, 17, 2, 27, 9, 37, 34, 21, 23, 41], [14, 2, 27, 9, 37, 34, 21, 47, 23, 41, 1, 33, 5, 45, 7, 25, 19, 44, 31, 29, 30, 11, 24, 32, 3, 35, 12, 26, 49, 15, 6, 43, 39, 8, 42, 38, 46, 40, 18, 10], [3, 35, 12, 26, 15, 6, 43, 39, 8, 42, 38, 46, 40, 18, 10, 14, 22, 28, 17, 48, 2, 27, 20, 34, 21, 47, 50, 23, 41, 1, 33, 5, 45, 36, 7, 25, 19, 44, 31, 29, 4, 11, 24, 32], [34, 21, 47, 41, 1, 5, 36, 7, 25, 19, 44, 29, 30, 4, 11, 24, 32, 12, 26, 6, 13, 43, 39, 8, 42, 38, 46, 18, 14, 49, 22, 28, 17, 2, 27, 20, 9]], 47)
round.(value.(model[:x])) = [0.0 0.0 0.0 -0.0 0.0 0.0 0.0 0.0 0.0 0.0 0.0 0.0 0.0 1.0 0.0 0.0 0.0 0.0 0.0 0.0 0.0 0.0 0.0 0.0 0.0 0.0 0.0 0.0 0.0 0.0 0.0 0.0 0.0 0.0 0.0 0.0 0.0 0.0 0.0 0.0 0.0 0.0 0.0 0.0 0.0 0.0 0.0; 0.0 0.0 0.0 -0.0 0.0 0.0 -0.0 0.0 0.0 -0.0 0.0 0.0 0.0 0.0 0.0 0.0 0.0 1.0 0.0 0.0 0.0 0.0 0.0 0.0 0.0 0.0 0.0 0.0 0.0 0.0 0.0 0.0 0.0 0.0 0.0 0.0 0.0 0.0 0.0 0.0 0.0 0.0 0.0 0.0 0.0 0.0 0.0; 0.0 0.0 0.0 0.0 0.0 0.0 0.0 0.0 0.0 0.0 0.0 0.0 0.0 0.0 1.0 0.0 0.0 0.0 -0.0 0.0 0.0 0.0 0.0 0.0 0.0 0.0 0.0 0.0 0.0 0.0 0.0 0.0 0.0 0.0 0.0 0.0 0.0 0.0 0.0 0.0 0.0 0.0 0.0 0.0 0.0 0.0 0.0; 0.0 0.0 -0.0 -0.0 0.0 0.0 0.0 0.0 0.0 0.0 -0.0 1.0 0.0 -0.0 0.0 0.0 0.0 -0.0 0.0 0.0 0.0 0.0 0.0 0.0 0.0 0.0 0.0 0.0 0.0 0.0 0.0 0.0 0.0 0.0 0.0 0.0 0.0 0.0 0.0 0.0 0.0 0.0 0.0 0.0 0.0 0.0 0.0; 0.0 0.0 0.0 0.0 0.0 0.0 0.0 0.0 0.0 0.0 -0.0 0.0 1.0 0.0 0.0 0.0 0.0 0.0 0.0 0.0 0.0 0.0 0.0 0.0 0.0 0.0 0.0 0.0 0.0 0.0 0.0 0.0 0.0 0.0 0.0 0.0 0.0 0.0 0.0 0.0 0.0 0.0 0.0 0.0 0.0 0.0 0.0; 0.0 0.0 0.0 0.0 0.0 0.0 -0.0 0.0 0.0 0.0 -0.0 0.0 0.0 0.0 0.0 1.0 -0.0 0.0 -0.0 0.0 0.0 0.0 0.0 0.0 0.0 0.0 0.0 0.0 0.0 0.0 0.0 0.0 0.0 0.0 0.0 0.0 0.0 0.0 0.0 0.0 0.0 0.0 0.0 0.0 0.0 0.0 0.0; 1.0 0.0 0.0 -0.0 0.0 0.0 0.0 0.0 0.0 0.0 0.0 0.0 0.0 0.0 0.0 0.0 0.0 0.0 0.0 0.0 0.0 0.0 0.0 0.0 0.0 0.0 0.0 0.0 0.0 0.0 0.0 0.0 0.0 0.0 0.0 0.0 0.0 0.0 0.0 0.0 0.0 0.0 0.0 0.0 0.0 0.0 0.0; 0.0 0.0 0.0 0.0 0.0 0.0 0.0 -0.0 1.0 0.0 0.0 0.0 0.0 0.0 -0.0 0.0 0.0 -0.0 -0.0 0.0 0.0 0.0 0.0 0.0 0.0 0.0 0.0 0.0 0.0 0.0 0.0 0.0 0.0 0.0 0.0 0.0 0.0 0.0 0.0 0.0 0.0 0.0 0.0 0.0 0.0 0.0 0.0; 0.0 0.0 0.0 -0.0 0.0 0.0 1.0 0.0 0.0 0.0 0.0 0.0 0.0 0.0 0.0 0.0 0.0 0.0 0.0 0.0 0.0 0.0 0.0 0.0 0.0 0.0 0.0 0.0 0.0 0.0 0.0 0.0 0.0 0.0 0.0 0.0 0.0 0.0 0.0 0.0 0.0 0.0 0.0 0.0 0.0 0.0 0.0; 0.0 0.0 0.0 0.0 0.0 0.0 0.0 0.0 0.0 1.0 0.0 0.0 0.0 0.0 0.0 0.0 0.0 -0.0 0.0 0.0 0.0 0.0 0.0 0.0 0.0 0.0 0.0 0.0 0.0 0.0 0.0 0.0 0.0 0.0 0.0 0.0 0.0 0.0 0.0 0.0 0.0 0.0 0.0 0.0 0.0 0.0 0.0; 0.0 0.0 0.0 0.0 0.0 0.0 0.0 0.0 0.0 0.0 1.0 -0.0 0.0 0.0 0.0 0.0 0.0 0.0 0.0 0.0 0.0 0.0 0.0 0.0 0.0 0.0 0.0 0.0 0.0 0.0 0.0 0.0 0.0 0.0 0.0 0.0 0.0 0.0 0.0 0.0 0.0 0.0 0.0 0.0 0.0 0.0 0.0; 0.0 0.0 0.0 1.0 0.0 -0.0 -0.0 -0.0 -0.0 0.0 0.0 0.0 0.0 -0.0 0.0 0.0 0.0 -0.0 -0.0 0.0 0.0 0.0 0.0 0.0 0.0 0.0 0.0 0.0 0.0 0.0 0.0 0.0 0.0 0.0 0.0 0.0 0.0 0.0 0.0 0.0 0.0 0.0 0.0 0.0 0.0 0.0 0.0; 0.0 0.0 1.0 0.0 -0.0 0.0 0.0 0.0 0.0 -0.0 0.0 0.0 0.0 -0.0 0.0 0.0 0.0 0.0 0.0 0.0 0.0 0.0 0.0 0.0 0.0 0.0 0.0 0.0 0.0 0.0 0.0 0.0 0.0 0.0 0.0 0.0 0.0 0.0 0.0 0.0 0.0 0.0 0.0 0.0 0.0 0.0 0.0; 1.0 0.0 0.0 0.0 0.0 0.0 0.0 -0.0 0.0 0.0 0.0 0.0 0.0 0.0 0.0 0.0 0.0 0.0 0.0 0.0 0.0 0.0 0.0 0.0 0.0 0.0 0.0 0.0 0.0 0.0 0.0 0.0 0.0 0.0 0.0 0.0 0.0 0.0 0.0 0.0 0.0 0.0 0.0 0.0 0.0 0.0 0.0; 0.0 0.0 0.0 0.0 0.0 0.0 0.0 1.0 0.0 0.0 0.0 0.0 0.0 0.0 0.0 0.0 0.0 0.0 -0.0 0.0 0.0 0.0 0.0 0.0 0.0 0.0 0.0 0.0 0.0 0.0 0.0 0.0 0.0 0.0 0.0 0.0 0.0 0.0 0.0 0.0 0.0 0.0 0.0 0.0 0.0 0.0 0.0; 0.0 0.0 0.0 0.0 0.0 0.0 -0.0 0.0 0.0 0.0 0.0 0.0 0.0 0.0 1.0 0.0 0.0 0.0 0.0 0.0 0.0 0.0 0.0 0.0 0.0 0.0 0.0 0.0 0.0 0.0 0.0 0.0 0.0 0.0 0.0 0.0 0.0 0.0 0.0 0.0 0.0 0.0 0.0 0.0 0.0 0.0 0.0; 0.0 0.0 -0.0 -0.0 0.0 0.0 0.0 0.0 0.0 0.0 0.0 1.0 0.0 0.0 0.0 0.0 0.0 0.0 0.0 0.0 0.0 0.0 0.0 0.0 0.0 0.0 0.0 0.0 0.0 0.0 0.0 0.0 0.0 0.0 0.0 0.0 0.0 0.0 0.0 0.0 0.0 0.0 0.0 0.0 0.0 0.0 0.0; 0.0 0.0 0.0 0.0 0.0 0.0 0.0 -0.0 1.0 -0.0 -0.0 -0.0 0.0 0.0 -0.0 0.0 0.0 0.0 0.0 0.0 0.0 0.0 0.0 0.0 0.0 0.0 0.0 0.0 0.0 0.0 0.0 0.0 0.0 0.0 0.0 0.0 0.0 0.0 0.0 0.0 0.0 0.0 0.0 0.0 0.0 0.0 0.0; 0.0 0.0 0.0 0.0 0.0 0.0 0.0 1.0 0.0 0.0 0.0 -0.0 0.0 0.0 0.0 0.0 0.0 0.0 0.0 0.0 0.0 0.0 0.0 0.0 0.0 0.0 0.0 0.0 0.0 0.0 0.0 0.0 0.0 0.0 0.0 0.0 0.0 0.0 0.0 0.0 0.0 0.0 0.0 0.0 0.0 0.0 0.0; 0.0 0.0 0.0 -0.0 -0.0 0.0 0.0 0.0 0.0 0.0 0.0 0.0 0.0 0.0 0.0 0.0 1.0 0.0 0.0 0.0 0.0 0.0 0.0 0.0 0.0 0.0 0.0 0.0 0.0 0.0 0.0 0.0 0.0 0.0 0.0 0.0 0.0 0.0 0.0 0.0 0.0 0.0 0.0 0.0 0.0 0.0 0.0; 0.0 0.0 0.0 0.0 0.0 0.0 0.0 0.0 -0.0 -0.0 0.0 0.0 0.0 0.0 1.0 0.0 0.0 0.0 0.0 0.0 0.0 0.0 0.0 0.0 0.0 0.0 0.0 0.0 0.0 0.0 0.0 0.0 0.0 0.0 0.0 0.0 0.0 0.0 0.0 0.0 0.0 0.0 0.0 0.0 0.0 0.0 0.0; 0.0 1.0 0.0 0.0 0.0 0.0 0.0 0.0 0.0 0.0 0.0 0.0 0.0 -0.0 0.0 0.0 0.0 0.0 0.0 0.0 0.0 0.0 0.0 0.0 0.0 0.0 0.0 0.0 0.0 0.0 0.0 0.0 0.0 0.0 0.0 0.0 0.0 0.0 0.0 0.0 0.0 0.0 0.0 0.0 0.0 0.0 0.0; 0.0 0.0 -0.0 0.0 0.0 0.0 0.0 0.0 0.0 -0.0 0.0 0.0 0.0 0.0 0.0 0.0 1.0 0.0 0.0 0.0 0.0 0.0 0.0 0.0 0.0 0.0 0.0 0.0 0.0 0.0 0.0 0.0 0.0 0.0 0.0 0.0 0.0 0.0 0.0 0.0 0.0 0.0 0.0 0.0 0.0 0.0 0.0; 0.0 0.0 0.0 0.0 0.0 0.0 0.0 0.0 0.0 0.0 0.0 0.0 0.0 0.0 0.0 0.0 1.0 0.0 0.0 0.0 0.0 0.0 0.0 0.0 0.0 0.0 0.0 0.0 0.0 0.0 0.0 0.0 0.0 0.0 0.0 0.0 0.0 0.0 0.0 0.0 0.0 0.0 0.0 0.0 0.0 0.0 0.0; 0.0 0.0 0.0 0.0 0.0 0.0 0.0 0.0 0.0 0.0 0.0 0.0 0.0 0.0 0.0 1.0 0.0 -0.0 0.0 0.0 0.0 0.0 0.0 0.0 0.0 0.0 0.0 0.0 0.0 0.0 0.0 0.0 0.0 0.0 0.0 0.0 0.0 0.0 0.0 0.0 0.0 0.0 0.0 0.0 0.0 0.0 0.0; 0.0 0.0 0.0 0.0 0.0 0.0 0.0 1.0 0.0 0.0 0.0 0.0 0.0 0.0 0.0 0.0 0.0 -0.0 0.0 0.0 0.0 0.0 0.0 0.0 0.0 0.0 0.0 0.0 0.0 0.0 0.0 0.0 0.0 0.0 0.0 0.0 0.0 0.0 0.0 0.0 0.0 0.0 0.0 0.0 0.0 0.0 0.0; 0.0 0.0 0.0 0.0 0.0 -0.0 0.0 0.0 0.0 0.0 0.0 0.0 1.0 0.0 0.0 0.0 0.0 0.0 0.0 0.0 0.0 0.0 0.0 0.0 0.0 0.0 0.0 0.0 0.0 0.0 0.0 0.0 0.0 0.0 0.0 0.0 0.0 0.0 0.0 0.0 0.0 0.0 0.0 0.0 0.0 0.0 0.0; 0.0 1.0 0.0 0.0 0.0 0.0 0.0 -0.0 0.0 0.0 0.0 0.0 0.0 0.0 0.0 0.0 0.0 0.0 0.0 0.0 0.0 0.0 0.0 0.0 0.0 0.0 0.0 0.0 0.0 0.0 0.0 0.0 0.0 0.0 0.0 0.0 0.0 0.0 0.0 0.0 0.0 0.0 0.0 0.0 0.0 0.0 0.0; 0.0 0.0 0.0 0.0 0.0 0.0 0.0 0.0 0.0 0.0 0.0 0.0 -0.0 0.0 0.0 1.0 0.0 0.0 0.0 0.0 0.0 0.0 0.0 0.0 0.0 0.0 0.0 0.0 0.0 0.0 0.0 0.0 0.0 0.0 0.0 0.0 0.0 0.0 0.0 0.0 0.0 0.0 0.0 0.0 0.0 0.0 0.0; 0.0 0.0 0.0 0.0 0.0 0.0 1.0 0.0 0.0 0.0 -0.0 0.0 0.0 0.0 0.0 0.0 0.0 0.0 0.0 0.0 0.0 0.0 0.0 0.0 0.0 0.0 0.0 0.0 0.0 0.0 0.0 0.0 0.0 0.0 0.0 0.0 0.0 0.0 0.0 0.0 0.0 0.0 0.0 0.0 0.0 0.0 0.0; 0.0 0.0 1.0 0.0 0.0 0.0 0.0 0.0 0.0 0.0 0.0 0.0 -0.0 0.0 0.0 0.0 0.0 0.0 0.0 0.0 0.0 0.0 0.0 0.0 0.0 0.0 0.0 0.0 0.0 0.0 0.0 0.0 0.0 0.0 0.0 0.0 0.0 0.0 0.0 0.0 0.0 0.0 0.0 0.0 0.0 0.0 0.0; 0.0 0.0 0.0 0.0 0.0 1.0 0.0 0.0 0.0 0.0 0.0 -0.0 0.0 0.0 0.0 0.0 0.0 0.0 0.0 0.0 0.0 0.0 0.0 0.0 0.0 0.0 0.0 0.0 0.0 0.0 0.0 0.0 0.0 0.0 0.0 0.0 0.0 0.0 0.0 0.0 0.0 0.0 0.0 0.0 0.0 0.0 0.0; 0.0 -0.0 0.0 1.0 0.0 0.0 -0.0 0.0 0.0 0.0 0.0 0.0 0.0 0.0 0.0 0.0 0.0 -0.0 0.0 0.0 0.0 0.0 0.0 0.0 0.0 0.0 0.0 0.0 0.0 0.0 0.0 0.0 0.0 0.0 0.0 0.0 0.0 0.0 0.0 0.0 0.0 0.0 0.0 0.0 0.0 0.0 0.0; 0.0 0.0 0.0 0.0 0.0 0.0 0.0 0.0 0.0 0.0 1.0 -0.0 0.0 0.0 0.0 0.0 0.0 0.0 0.0 0.0 0.0 0.0 0.0 0.0 0.0 0.0 0.0 0.0 0.0 0.0 0.0 0.0 0.0 0.0 0.0 0.0 0.0 0.0 0.0 0.0 0.0 0.0 0.0 0.0 0.0 0.0 0.0; 0.0 0.0 0.0 0.0 -0.0 0.0 0.0 0.0 1.0 0.0 0.0 0.0 0.0 0.0 0.0 0.0 0.0 0.0 0.0 0.0 0.0 0.0 0.0 0.0 0.0 0.0 0.0 0.0 0.0 0.0 0.0 0.0 0.0 0.0 0.0 0.0 0.0 0.0 0.0 0.0 0.0 0.0 0.0 0.0 0.0 0.0 0.0; 1.0 0.0 0.0 0.0 0.0 0.0 0.0 0.0 0.0 0.0 0.0 0.0 0.0 0.0 0.0 -0.0 0.0 0.0 0.0 0.0 0.0 0.0 0.0 0.0 0.0 0.0 0.0 0.0 0.0 0.0 0.0 0.0 0.0 0.0 0.0 0.0 0.0 0.0 0.0 0.0 0.0 0.0 0.0 0.0 0.0 0.0 0.0; 0.0 0.0 0.0 0.0 0.0 0.0 0.0 -0.0 0.0 1.0 0.0 0.0 0.0 0.0 0.0 0.0 0.0 0.0 0.0 0.0 0.0 0.0 0.0 0.0 0.0 0.0 0.0 0.0 0.0 0.0 0.0 0.0 0.0 0.0 0.0 0.0 0.0 0.0 0.0 0.0 0.0 0.0 0.0 0.0 0.0 0.0 0.0; 0.0 0.0 0.0 -0.0 1.0 0.0 0.0 0.0 0.0 0.0 -0.0 -0.0 0.0 0.0 0.0 0.0 0.0 0.0 0.0 0.0 0.0 0.0 0.0 0.0 0.0 0.0 0.0 0.0 0.0 0.0 0.0 0.0 0.0 0.0 0.0 0.0 0.0 0.0 0.0 0.0 0.0 0.0 0.0 0.0 0.0 0.0 0.0; 0.0 0.0 0.0 0.0 0.0 -0.0 0.0 0.0 -0.0 -0.0 -0.0 -0.0 0.0 1.0 -0.0 0.0 0.0 0.0 0.0 0.0 0.0 0.0 0.0 0.0 0.0 0.0 0.0 0.0 0.0 0.0 0.0 0.0 0.0 0.0 0.0 0.0 0.0 0.0 0.0 0.0 0.0 0.0 0.0 0.0 0.0 0.0 0.0; 0.0 0.0 0.0 0.0 0.0 -0.0 0.0 0.0 0.0 0.0 -0.0 1.0 0.0 0.0 0.0 0.0 0.0 -0.0 0.0 0.0 0.0 0.0 0.0 0.0 0.0 0.0 0.0 0.0 0.0 0.0 0.0 0.0 0.0 0.0 0.0 0.0 0.0 0.0 0.0 0.0 0.0 0.0 0.0 0.0 0.0 0.0 0.0; 0.0 0.0 0.0 0.0 0.0 1.0 0.0 0.0 0.0 0.0 0.0 0.0 0.0 0.0 0.0 0.0 0.0 0.0 0.0 0.0 0.0 0.0 0.0 0.0 0.0 0.0 0.0 0.0 0.0 0.0 0.0 0.0 0.0 0.0 0.0 0.0 0.0 0.0 0.0 0.0 0.0 0.0 0.0 0.0 0.0 0.0 0.0; -0.0 0.0 0.0 1.0 0.0 0.0 0.0 0.0 0.0 0.0 -0.0 -0.0 0.0 -0.0 0.0 0.0 0.0 0.0 0.0 0.0 0.0 0.0 0.0 0.0 0.0 0.0 0.0 0.0 0.0 0.0 0.0 0.0 0.0 0.0 0.0 0.0 0.0 0.0 0.0 0.0 0.0 0.0 0.0 0.0 0.0 0.0 0.0; 0.0 0.0 0.0 0.0 0.0 0.0 -0.0 0.0 -0.0 0.0 -0.0 0.0 0.0 0.0 0.0 0.0 0.0 1.0 0.0 0.0 0.0 0.0 0.0 0.0 0.0 0.0 0.0 0.0 0.0 0.0 0.0 0.0 0.0 0.0 0.0 0.0 0.0 0.0 0.0 0.0 0.0 0.0 0.0 0.0 0.0 0.0 0.0; 0.0 0.0 0.0 0.0 1.0 0.0 0.0 0.0 0.0 0.0 0.0 0.0 -0.0 0.0 0.0 0.0 0.0 0.0 0.0 0.0 0.0 0.0 0.0 0.0 0.0 0.0 0.0 0.0 0.0 0.0 0.0 0.0 0.0 0.0 0.0 0.0 0.0 0.0 0.0 0.0 0.0 0.0 0.0 0.0 0.0 0.0 0.0; -0.0 0.0 1.0 0.0 0.0 0.0 0.0 -0.0 -0.0 0.0 0.0 0.0 0.0 -0.0 0.0 0.0 0.0 0.0 -0.0 0.0 0.0 0.0 0.0 0.0 0.0 0.0 0.0 0.0 0.0 0.0 0.0 0.0 0.0 0.0 0.0 0.0 0.0 0.0 0.0 0.0 0.0 0.0 0.0 0.0 0.0 0.0 0.0; 0.0 0.0 1.0 0.0 0.0 0.0 0.0 0.0 0.0 0.0 0.0 -0.0 0.0 0.0 0.0 0.0 0.0 0.0 0.0 0.0 0.0 0.0 0.0 0.0 0.0 0.0 0.0 0.0 0.0 0.0 0.0 0.0 0.0 0.0 0.0 0.0 0.0 0.0 0.0 0.0 0.0 0.0 0.0 0.0 0.0 0.0 0.0; 0.0 0.0 0.0 0.0 0.0 0.0 0.0 0.0 0.0 0.0 0.0 0.0 0.0 1.0 0.0 -0.0 0.0 0.0 0.0 0.0 0.0 0.0 0.0 0.0 0.0 0.0 0.0 0.0 0.0 0.0 0.0 0.0 0.0 0.0 0.0 0.0 0.0 0.0 0.0 0.0 0.0 0.0 0.0 0.0 0.0 0.0 0.0; 0.0 1.0 0.0 0.0 0.0 0.0 0.0 0.0 0.0 0.0 0.0 -0.0 0.0 0.0 0.0 0.0 0.0 0.0 0.0 0.0 0.0 0.0 0.0 0.0 0.0 0.0 0.0 0.0 0.0 0.0 0.0 0.0 0.0 0.0 0.0 0.0 0.0 0.0 0.0 0.0 0.0 0.0 0.0 0.0 0.0 0.0 0.0; 0.0 0.0 0.0 0.0 0.0 0.0 1.0 0.0 0.0 -0.0 0.0 0.0 0.0 0.0 -0.0 0.0 0.0 0.0 0.0 0.0 0.0 0.0 0.0 0.0 0.0 0.0 0.0 0.0 0.0 0.0 0.0 0.0 0.0 0.0 0.0 0.0 0.0 0.0 0.0 0.0 0.0 0.0 0.0 0.0 0.0 0.0 0.0; 0.0 0.0 0.0 0.0 0.0 0.0 0.0 -0.0 0.0 1.0 0.0 0.0 0.0 0.0 0.0 0.0 0.0 0.0 0.0 0.0 0.0 0.0 0.0 0.0 0.0 0.0 0.0 0.0 0.0 0.0 0.0 0.0 0.0 0.0 0.0 0.0 0.0 0.0 0.0 0.0 0.0 0.0 0.0 0.0 0.0 0.0 0.0]
round.(value.(model[:y])) = [1.0, 1.0, 1.0, 1.0, 1.0, 1.0, 1.0, 1.0, 1.0, 1.0, 1.0, 1.0, 1.0, 1.0, 1.0, 1.0, 1.0, 1.0, 0.0, 0.0, 0.0, 0.0, 0.0, 0.0, 0.0, 0.0, 0.0, 0.0, 0.0, 0.0, 0.0, 0.0, 0.0, 0.0, 0.0, 0.0, 0.0, 0.0, 0.0, 0.0, 0.0, 0.0, 0.0, 0.0, 0.0, 0.0, 0.0]
(n, m, A) = (50, 980, [[10, 21, 50, 34, 26, 37, 35, 9, 3, 20, 27, 2, 40, 46, 48, 17, 32, 24, 28, 38, 11, 4, 42, 30, 29, 44, 19, 8, 25, 7, 36, 45, 5, 49, 13, 6, 23, 14, 16], [26, 12, 37, 18, 35, 9, 20, 27, 40, 46, 48, 17, 32, 1, 24, 28, 38, 11, 4, 22, 42, 30, 29, 31, 44, 19, 8, 25, 7, 36, 45, 39, 5, 49, 13, 6, 15, 41, 23, 14, 16, 47, 10, 21, 50, 34], [49, 33, 13, 6, 15, 41, 23, 47, 10, 1, 34, 26, 12, 37, 35, 9, 27, 40, 46, 48, 17, 24, 28, 38, 11, 4, 22, 42, 30, 29, 31, 44, 19, 25, 36, 45, 39, 43], [41, 23, 14, 10, 21, 50, 34, 26, 12, 18, 35, 9, 20, 2, 46, 32, 24, 1, 28, 38, 11, 42, 30, 29, 3, 44, 19, 8, 25, 7, 36, 45, 39, 5, 43, 49, 33, 13, 6], [47, 10, 21, 50, 34, 26, 12, 37, 18, 35, 9, 20, 40, 46, 48, 32, 24, 38, 11, 30, 2, 29, 31, 19, 8, 7, 36, 45, 1, 39, 43, 49, 33, 13, 6, 15, 4, 41, 23, 14], [31, 44, 19, 3, 36, 45, 39, 43, 49, 33, 15, 41, 14, 16, 10, 21, 50, 34, 26, 12, 37, 18, 35, 9, 20, 46, 2, 48, 17, 32, 1, 5, 38, 11, 22, 42, 4], [10, 21, 50, 34, 26, 12, 37, 18, 20, 40, 46, 48, 17, 32, 24, 28, 38, 2, 11, 22, 42, 30, 29, 31, 44, 1, 19, 5, 25, 4, 45, 39, 43, 49, 33, 13, 15, 41, 23], [29, 31, 44, 19, 25, 36, 45, 43, 49, 13, 41, 23, 14, 16, 47, 10, 21, 50, 34, 12, 2, 37, 9, 20, 27, 40, 1, 5, 48, 17, 32, 4, 24, 28, 38, 11, 22, 30], [26, 12, 18, 35, 2, 20, 46, 48, 1, 17, 5, 32, 24, 4, 28, 38, 3, 42, 29, 31, 44, 19, 6, 25, 36, 8, 45, 39, 43, 13, 15, 41, 23, 14, 16, 47, 10, 21, 50, 34], [32, 1, 5, 7, 24, 28, 4, 38, 11, 22, 42, 30, 3, 44, 36, 6, 8, 49, 33, 13, 15, 41, 23, 14, 16, 47, 21, 34, 26, 12, 18, 35, 20, 2, 27, 9, 40, 46, 48], [41, 23, 14, 16, 47, 21, 10, 50, 26, 12, 37, 18, 35, 20, 27, 2, 40, 46, 48, 32, 1, 24, 5, 7, 28, 38, 4, 22, 42, 30, 3, 29, 31, 44, 19, 25, 36, 6, 45, 39, 43, 49, 33, 13, 8, 15], [45, 39, 49, 2, 9, 15, 41, 23, 14, 16, 5, 7, 4, 11, 50, 34, 26, 3, 35, 20, 6, 40, 8, 46, 48, 17, 32, 24, 38, 10, 22, 30, 44, 19, 25, 36], [3, 29, 25, 36, 39, 43, 33, 8, 15, 41, 23, 14, 16, 47, 21, 50, 34, 10, 37, 35, 20, 27, 40, 2, 9, 17, 32, 1, 28, 5, 7, 4, 22, 11, 30], [48, 4, 32, 11, 24, 28, 12, 38, 22, 42, 30, 6, 13, 29, 31, 44, 19, 8, 25, 45, 39, 43, 49, 33, 15, 10, 41, 23, 16, 47, 21, 50, 34, 2, 9, 18, 20, 27, 40, 1, 5, 46], [29, 31, 44, 25, 36, 3, 12, 45, 39, 43, 49, 33, 6, 13, 23, 16, 47, 21, 34, 10, 14, 37, 18, 35, 20, 27, 40, 46, 48, 17, 2, 9, 32, 38, 5, 22, 42, 7, 11], [36, 11, 39, 43, 33, 12, 41, 23, 15, 6, 13, 47, 8, 34, 26, 37, 18, 35, 10, 27, 14, 40, 46, 17, 32, 24, 28, 2, 9, 38, 1, 29, 31, 44, 19], [37, 18, 35, 20, 27, 46, 2, 9, 28, 38, 22, 42, 1, 30, 7, 29, 44, 19, 25, 36, 3, 45, 39, 43, 12, 49, 16, 15, 6, 13, 41, 23, 8, 47, 21, 50, 34, 26], [24, 17, 28, 2, 9, 38, 22, 42, 30, 29, 5, 31, 44, 19, 7, 36, 4, 11, 45, 43, 49, 23, 16, 15, 6, 47, 21, 50, 34, 26, 20, 10, 14, 40, 48, 32], [6, 47, 8, 50, 34, 18, 14, 27, 40, 46, 48, 32, 17, 24, 28, 2, 9, 22, 42, 30, 1, 5, 29, 7, 31, 44, 25, 4, 11, 39, 43, 49, 33, 3, 12, 41, 23, 16], [17, 35, 2, 9, 27, 46, 1, 32, 5, 7, 4, 11, 38, 22, 42, 30, 12, 29, 31, 25, 15, 36, 6, 13, 8, 45, 39, 43, 49, 33, 41, 18, 10, 14, 21, 50, 34], [50, 34, 1, 5, 7, 26, 4, 11, 37, 35, 27, 40, 46, 48, 32, 15, 6, 13, 24, 8, 38, 22, 42, 30, 18, 29, 31, 44, 10, 25, 36, 14, 45, 39, 43, 49, 33, 17, 41, 23, 2, 20, 9, 47], [27, 40, 18, 32, 10, 14, 24, 38, 42, 30, 17, 2, 31, 44, 20, 25, 36, 21, 45, 39, 43, 49, 7, 19, 41, 11, 23, 47, 3, 12, 50, 34, 26, 15, 6, 13, 8, 37, 35], [4, 11, 26, 3, 12, 37, 35, 16, 27, 15, 13, 40, 8, 48, 32, 18, 38, 10, 42, 14, 30, 29, 31, 44, 22, 17, 45, 39, 43, 2, 49, 33, 9, 21, 41, 1, 5, 7, 19, 47], [18, 41, 10, 14, 47, 22, 50, 34, 26, 2, 9, 37, 35, 21, 27, 40, 1, 5, 46, 48, 7, 19, 32, 4, 11, 28, 3, 38, 12, 42, 16, 31, 8, 25, 36, 39, 43, 49, 33], [15, 47, 13, 8, 50, 34, 26, 37, 35, 27, 40, 14, 46, 48, 32, 22, 17, 38, 2, 20, 9, 42, 30, 21, 31, 1, 7, 19, 36, 4, 45, 11, 39, 43, 24, 49, 33, 3, 12], [2, 9, 45, 39, 49, 21, 23, 1, 41, 5, 7, 25, 4, 11, 47, 24, 50, 3, 12, 37, 16, 35, 6, 27, 40, 46, 48, 32, 18, 28, 10, 38, 42, 30, 22, 29, 31, 44, 17, 36], [22, 37, 17, 35, 2, 20, 21, 46, 48, 23, 1, 25, 19, 28, 11, 24, 42, 30, 3, 26, 29, 31, 44, 16, 36, 15, 13, 39, 8, 43, 49, 33, 41, 47, 10, 14, 50, 34], [18, 40, 10, 14, 32, 17, 38, 2, 27, 9, 30, 29, 31, 44, 1, 36, 7, 19, 45, 39, 43, 4, 11, 49, 33, 24, 3, 26, 16, 47, 13, 8, 50, 34], [15, 13, 8, 47, 50, 34, 18, 37, 35, 14, 46, 48, 28, 32, 17, 2, 27, 20, 9, 21, 42, 23, 1, 5, 7, 19, 31, 44, 4, 11, 36, 45, 39, 43, 49, 3, 26, 16, 41], [47, 18, 50, 10, 14, 37, 35, 22, 28, 40, 17, 46, 48, 2, 27, 20, 32, 21, 23, 1, 5, 38, 7, 25, 19, 42, 4, 11, 31, 44, 3, 36, 12, 26, 45, 39, 33, 13, 8], [15, 6, 8, 47, 18, 37, 35, 14, 40, 48, 22, 32, 28, 2, 27, 20, 9, 38, 21, 42, 23, 5, 25, 7, 19, 44, 29, 30, 11, 36, 24, 39, 43, 49, 3, 26, 41, 16], [10, 14, 22, 28, 50, 34, 2, 20, 9, 21, 35, 23, 1, 5, 7, 25, 40, 19, 31, 29, 30, 4, 46, 11, 48, 24, 12, 26, 38, 16, 42, 15, 6, 13, 8, 44, 36, 45, 18, 49, 33], [3, 47, 16, 15, 6, 13, 37, 35, 40, 48, 10, 14, 38, 28, 27, 20, 44, 36, 21, 23, 45, 39, 43, 49, 5, 7, 25, 19, 30, 4, 11, 41, 24, 32], [50, 21, 1, 5, 37, 7, 25, 19, 29, 35, 4, 24, 40, 32, 46, 3, 48, 12, 16, 15, 6, 13, 8, 42, 44, 18, 36, 10, 45, 43, 14, 49, 41, 22, 28, 17, 47, 2, 27, 20, 9], [49, 17, 2, 27, 20, 9, 41, 34, 21, 23, 1, 33, 5, 25, 31, 29, 30, 4, 11, 24, 32, 37, 3, 12, 26, 40, 16, 15, 46, 6, 13, 48, 38, 42, 10, 44, 36, 45, 22, 39], [16, 47, 15, 6, 13, 8, 50, 37, 18, 10, 40, 46, 22, 28, 17, 38, 27, 2, 20, 9, 42, 34, 21, 1, 33, 5, 25, 31, 29, 30, 45, 4, 39, 11, 43, 49, 24, 32, 3, 35, 12, 41, 26], [17, 2, 27, 34, 21, 23, 40, 1, 33, 5, 46, 36, 7, 25, 48, 31, 29, 30, 11, 24, 3, 35, 38, 26, 42, 16, 15, 6, 13, 44, 8, 45, 43, 41, 47, 22], [42, 18, 10, 14, 45, 39, 43, 49, 22, 28, 17, 41, 2, 20, 9, 37, 47, 21, 23, 50, 1, 33, 5, 36, 7, 25, 31, 30, 4, 11, 24, 32, 3, 35, 40, 12, 26, 48, 16, 15, 6, 8], [12, 26, 44, 16, 15, 6, 13, 45, 43, 49, 38, 41, 14, 50, 22, 28, 17, 2, 27, 20, 9, 40, 46, 48, 21, 23, 33, 5, 36, 7, 25, 19, 31, 29, 30, 4, 11, 24, 42, 3, 35], [22, 28, 2, 37, 44, 34, 21, 23, 43, 1, 33, 5, 49, 36, 7, 25, 19, 31, 30, 11, 41, 24, 32, 3, 35, 47, 12, 26, 16, 15, 13, 39, 8, 38, 18, 46, 48, 10, 14], [4, 11, 24, 50, 3, 35, 12, 26, 16, 6, 13, 39, 8, 46, 48, 38, 40, 10, 42, 14, 44, 22, 17, 43, 2, 27, 20, 49, 9, 37, 34, 21, 23, 33, 5, 36, 7, 19, 31, 29, 47], [38, 44, 18, 10, 45, 14, 49, 22, 17, 2, 27, 47, 20, 9, 37, 34, 50, 21, 23, 41, 1, 36, 7, 25, 19, 31, 29, 30, 4, 11, 24, 32, 3, 46, 35, 48, 26, 15, 6, 39], [44, 16, 15, 45, 6, 13, 39, 49, 8, 38, 40, 18, 47, 14, 50, 22, 28, 17, 27, 20, 9, 37, 46, 34, 48, 21, 23, 41, 33, 5, 36, 7, 25, 19, 31, 29, 4, 11, 24, 3], [15, 6, 43, 39, 8, 47, 42, 50, 40, 18, 10, 14, 46, 48, 22, 28, 17, 2, 27, 9, 37, 34, 21, 23, 41, 1, 33, 7, 19, 31, 29, 30, 4, 11, 32, 45, 49, 3, 35, 12, 26, 16], [12, 26, 15, 6, 43, 39, 8, 42, 38, 18, 48, 14, 22, 28, 17, 2, 20, 9, 37, 34, 21, 23, 1, 33, 5, 36, 7, 25, 44, 49, 29, 30, 4, 11, 32, 3, 35], [17, 2, 27, 20, 9, 37, 34, 21, 49, 41, 1, 5, 36, 25, 7, 19, 44, 29, 30, 4, 11, 24, 32, 3, 35, 12, 50, 26, 16, 15, 6, 43, 39, 42, 48, 40, 10, 14], [33, 50, 5, 36, 25, 19, 44, 31, 29, 30, 11, 24, 3, 26, 48, 16, 15, 13, 43, 8, 42, 38, 40, 18, 10, 14, 49, 22, 28, 17, 2, 27, 9, 37, 34, 21, 23, 41], [14, 2, 27, 9, 37, 34, 21, 47, 23, 41, 1, 33, 5, 45, 7, 25, 19, 44, 31, 29, 30, 11, 24, 32, 3, 35, 12, 26, 49, 15, 6, 43, 39, 8, 42, 38, 46, 40, 18, 10], [3, 35, 12, 26, 15, 6, 43, 39, 8, 42, 38, 46, 40, 18, 10, 14, 22, 28, 17, 48, 2, 27, 20, 34, 21, 47, 50, 23, 41, 1, 33, 5, 45, 36, 7, 25, 19, 44, 31, 29, 4, 11, 24, 32], [34, 21, 47, 41, 1, 5, 36, 7, 25, 19, 44, 29, 30, 4, 11, 24, 32, 12, 26, 6, 13, 43, 39, 8, 42, 38, 46, 18, 14, 49, 22, 28, 17, 2, 27, 20, 9]])
 1 (14), 2 (18), 3 (15), 4 (12), 5 (13), 6 (16), 7 (1), 8 (9), 9 (7), 10 (10), 11 (11), 12 (4), 13 (3), 14 (1), 15 (8), 16 (15), 17 (12), 18 (9), 19 (8), 20 (17), 21 (15), 22 (2), 23 (17), 24 (17), 25 (16), 26 (8), 27 (13), 28 (2), 29 (16), 30 (7), 31 (3), 32 (6), 33 (4), 34 (11), 35 (9), 36 (1), 37 (10), 38 (5), 39 (14), 40 (12), 41 (6), 42 (4), 43 (18), 44 (5), 45 (3), 46 (3), 47 (14), 48 (2), 49 (7), 50 (10),
objective_bound(model) = 13.0
objective_value(model) = 18.0
